NAME: ./prFile/tspFile/tsp_file82.tsp
COMMENT: TSP file generated by Python
TYPE: TSP
DIMENSION: 40
EDGE_WEIGHT_TYPE: EUC_2D
NODE_COORD_SECTION
1 55 94
2 94 50
3 12 49
4 75 68
5 48 82
6 76 4
7 72 88
8 73 54
9 20 97
10 85 70
11 18 75
12 77 74
13 78 26
14 64 47
15 47 57
16 57 82
17 96 60
18 37 66
19 96 63
20 100 32
21 77 33
22 97 25
23 51 99
24 10 94
25 28 32
26 79 41
27 3 24
28 85 71
29 78 1
30 6 29
31 91 10
32 25 62
33 27 83
34 55 97
35 7 21
36 13 63
37 25 17
38 69 83
39 93 35
40 19 32
EOF
